2008450
0	11	10465
11	31	4813
31	55	1427
55	39	3489
39	4	3130
4	59	7979
59	28	6419
28	24	9940
24	29	1249
29	40	5056
40	5	10602
5	22	16175
22	48	4353
48	18	8895
18	53	26950
53	12	13536
12	46	9114
46	3	12782
3	19	4440
19	47	9225
47	1	7938
1	26	15575
26	16	1445
16	8	5356
8	57	1777
57	14	6904
14	7	6874
7	35	11459
35	58	8563
58	15	10880
15	62	14689
62	23	26977
23	60	5437
60	41	10110
41	2	13084
2	20	17216
20	37	42598
37	66	15200
66	63	14572
63	6	31078
6	33	42208
33	54	20835
54	45	30985
45	42	69394
42	10	99066
10	65	13370
65	25	57991
25	64	185977
64	44	16726
44	67	50028
67	34	19070
34	50	8926
50	38	11004
38	61	8740
61	36	30446
36	52	6554
52	49	48925
49	27	10810
27	30	65445
30	21	39447
21	51	46274
51	13	39276
13	56	44799
56	17	27906
17	9	28652
9	43	75759
43	32	185722
32	0	286344
